(set-logic QF_LIA)
(declare-fun x0 () Int)
(declare-fun x1 () Int)
(declare-fun x2 () Int)
(declare-fun x3 () Int)
(declare-fun x4 () Int)
(declare-fun x5 () Int)
(declare-fun x6 () Int)
(declare-fun x7 () Int)
(declare-fun x8 () Int)
(declare-fun x9 () Int)
(declare-fun A0 () Bool)
(declare-fun A1 () Bool)
(declare-fun A2 () Bool)
(declare-fun A3 () Bool)
(declare-fun A5 () Bool)
(declare-fun A6 () Bool)
(declare-fun A8 () Bool)
(declare-fun A9 () Bool)
(assert (let ((.def_0 (* 1 x4))) (let ((.def_1 (< .def_0 1))) (let ((.def_2 (not .def_1))) (let ((.def_3 (* 1 x7))) (let ((.def_4 (< .def_3 1))) (let ((.def_5 (and .def_4 .def_2))) (let ((.def_6 (not .def_5))) (let ((.def_7 (* (- 1) x0))) (let ((.def_8 (* (- 1) x7))) (let ((.def_9 (+ .def_8 .def_7))) (let ((.def_10 (< .def_9 (- 1)))) (let ((.def_11 (or A8 .def_10))) (let ((.def_12 (not .def_11))) (let ((.def_13 (= .def_12 .def_6))) (let ((.def_14 (not .def_13))) (let ((.def_15 (not A2))) (let ((.def_16 (* 1 x8))) (let ((.def_17 (< .def_16 (- 1)))) (let ((.def_18 (and .def_17 .def_15))) (let ((.def_19 (not .def_18))) (let ((.def_20 (* 1 x2))) (let ((.def_21 (+ .def_20 .def_0))) (let ((.def_22 (< .def_21 1))) (let ((.def_23 (* (- 1) x3))) (let ((.def_24 (* 1 x0))) (let ((.def_25 (+ .def_24 .def_23))) (let ((.def_26 (< .def_25 1))) (let ((.def_27 (and .def_26 .def_22))) (let ((.def_28 (or .def_27 .def_19))) (let ((.def_29 (not .def_28))) (let ((.def_30 (or .def_29 .def_14))) (let ((.def_31 (< .def_20 1))) (let ((.def_32 (* (- 1) x6))) (let ((.def_33 (* 1 x5))) (let ((.def_34 (+ .def_33 .def_32))) (let ((.def_35 (< .def_34 (- 1)))) (let ((.def_36 (or .def_35 .def_31))) (let ((.def_37 (not .def_36))) (let ((.def_38 (not A1))) (let ((.def_39 (or .def_38 A3))) (let ((.def_40 (not .def_39))) (let ((.def_41 (= .def_40 .def_37))) (let ((.def_42 (not .def_41))) (let ((.def_43 (* (- 1) x4))) (let ((.def_44 (+ .def_32 .def_43))) (let ((.def_45 (< .def_44 (- 1)))) (let ((.def_46 (not A0))) (let ((.def_47 (or .def_46 .def_45))) (let ((.def_48 (not .def_47))) (let ((.def_49 (not A9))) (let ((.def_50 (< .def_43 1))) (let ((.def_51 (not .def_50))) (let ((.def_52 (and .def_51 .def_49))) (let ((.def_53 (or .def_52 .def_48))) (let ((.def_54 (not .def_53))) (let ((.def_55 (or .def_54 .def_42))) (let ((.def_56 (not .def_55))) (let ((.def_57 (and .def_56 .def_30))) (let ((.def_58 (not .def_57))) (let ((.def_59 (< .def_32 (- 1)))) (let ((.def_60 (not .def_59))) (let ((.def_61 (< .def_7 (- 1)))) (let ((.def_62 (not .def_61))) (let ((.def_63 (or .def_62 .def_60))) (let ((.def_64 (not .def_4))) (let ((.def_65 (or .def_64 A1))) (let ((.def_66 (or .def_65 .def_63))) (let ((.def_67 (not A5))) (let ((.def_68 (and .def_38 .def_67))) (let ((.def_69 (not .def_68))) (let ((.def_70 (not A8))) (let ((.def_71 (or .def_61 .def_70))) (let ((.def_72 (or .def_71 .def_69))) (let ((.def_73 (not .def_72))) (let ((.def_74 (and .def_73 .def_66))) (let ((.def_75 (* (- 1) x9))) (let ((.def_76 (+ .def_24 .def_75))) (let ((.def_77 (< .def_76 1))) (let ((.def_78 (not .def_77))) (let ((.def_79 (< .def_20 (- 1)))) (let ((.def_80 (= .def_79 .def_78))) (let ((.def_81 (* (- 1) x8))) (let ((.def_82 (* 1 x3))) (let ((.def_83 (+ .def_82 .def_81))) (let ((.def_84 (< .def_83 (- 1)))) (let ((.def_85 (* (- 1) x1))) (let ((.def_86 (+ .def_85 .def_20))) (let ((.def_87 (< .def_86 (- 1)))) (let ((.def_88 (or .def_87 .def_84))) (let ((.def_89 (and .def_88 .def_80))) (let ((.def_90 (not .def_89))) (let ((.def_91 (not A6))) (let ((.def_92 (* (- 1) x5))) (let ((.def_93 (+ .def_92 .def_7))) (let ((.def_94 (< .def_93 1))) (let ((.def_95 (or .def_94 .def_91))) (let ((.def_96 (< .def_33 (- 1)))) (let ((.def_97 (+ .def_20 .def_92))) (let ((.def_98 (< .def_97 (- 1)))) (let ((.def_99 (or .def_98 .def_96))) (let ((.def_100 (not .def_99))) (let ((.def_101 (or .def_100 .def_95))) (let ((.def_102 (and .def_101 .def_90))) (let ((.def_103 (not .def_102))) (let ((.def_104 (= .def_103 .def_74))) (let ((.def_105 (or .def_104 .def_58))) (let ((.def_106 (<= x9 1))) (let ((.def_107 (<= 0 x9))) (let ((.def_108 (<= x8 1))) (let ((.def_109 (<= 0 x8))) (let ((.def_110 (<= x7 1))) (let ((.def_111 (<= 0 x7))) (let ((.def_112 (<= x6 1))) (let ((.def_113 (<= 0 x6))) (let ((.def_114 (<= x5 1))) (let ((.def_115 (<= 0 x5))) (let ((.def_116 (<= x4 1))) (let ((.def_117 (<= 0 x4))) (let ((.def_118 (<= x3 1))) (let ((.def_119 (<= 0 x3))) (let ((.def_120 (<= x2 1))) (let ((.def_121 (<= 0 x2))) (let ((.def_122 (<= x1 1))) (let ((.def_123 (<= 0 x1))) (let ((.def_124 (<= x0 1))) (let ((.def_125 (<= 0 x0))) (let ((.def_126 (and .def_125 .def_124 .def_123 .def_122 .def_121 .def_120 .def_119 .def_118 .def_117 .def_116 .def_115 .def_114 .def_113 .def_112 .def_111 .def_110 .def_109 .def_108 .def_107 .def_106 .def_105))) .def_126))))))))))))))))))))))))))))))))))))))))))))))))))))))))))))))))))))))))))))))))))))))))))))))))))))))))))))))))))))))))))))))))
(check-sat)
